30	100	100	100
7	35	46
17	34	25
20	39	10
2	15	32
23	35	44
39	10	28
43	22	13
43	17	31
36	2	33
47	9	9
13	42	41
14	30	47
39	33	33
10	36	7
21	7	1
33	49	24
4	18	32
49	35	31
44	3	48
45	38	6
37	4	39
16	35	8
37	33	30
13	3	21
42	35	44
13	7	29
48	5	35
23	38	41
4	47	24
37	2	19
